Version identifier: 22.1.1.0 | 2022-11-28 | 9160aff4d
CPXPARAM_ClockType                               1
CPXPARAM_Read_DataCheck                          1
CPXPARAM_Threads                                 1
CPXPARAM_TimeLimit                               7200
CPXPARAM_MIP_Tolerances_AbsMIPGap                0
CPXPARAM_MIP_Tolerances_MIPGap                   0
CPXPARAM_MIP_Tolerances_Integrality              0
Tried aggregator 2 times.
MIP Presolve eliminated 3443 rows and 1 columns.
MIP Presolve modified 3052 coefficients.
Aggregator did 1000 substitutions.
Reduced MIP has 5756 rows, 2999 columns, and 17594 nonzeros.
Reduced MIP has 2999 binaries, 0 generals, 0 SOSs, and 0 indicators.
Presolve time = 0.04 sec. (26.21 ticks)
Found incumbent of value 152.000000 after 0.07 sec. (50.18 ticks)
Probing time = 0.03 sec. (6.24 ticks)
Tried aggregator 1 time.
Detecting symmetries...
MIP Presolve eliminated 202 rows and 4 columns.
MIP Presolve modified 2 coefficients.
Reduced MIP has 5554 rows, 2995 columns, and 16584 nonzeros.
Reduced MIP has 2995 binaries, 0 generals, 0 SOSs, and 0 indicators.
Presolve time = 0.03 sec. (18.96 ticks)
Probing time = 0.00 sec. (2.65 ticks)
Clique table members: 10591.
MIP emphasis: balance optimality and feasibility.
MIP search method: dynamic search.
Parallel mode: none, using 1 thread.
Root relaxation solution time = 0.35 sec. (267.13 ticks)

        Nodes                                         Cuts/
   Node  Left     Objective  IInf  Best Integer    Best Bound    ItCnt     Gap

*     0+    0                          152.0000      500.0000           228.95%
      0     0      200.0000   542      152.0000      200.0000     2236   31.58%
      0     0      200.0000   551      152.0000    Cliques: 1     2434   31.58%
*     0+    0                          174.0000      200.0000            14.94%
*     0+    0                          198.0000      200.0000             1.01%
Detecting symmetries...

Repeating presolve.
Tried aggregator 3 times.
MIP Presolve eliminated 1008 rows and 998 columns.
MIP Presolve modified 996 coefficients.
Aggregator did 5 substitutions.
Reduced MIP has 4541 rows, 1992 columns, and 11555 nonzeros.
Reduced MIP has 1992 binaries, 0 generals, 0 SOSs, and 0 indicators.
Presolve time = 0.03 sec. (19.22 ticks)
Probing time = 0.01 sec. (2.35 ticks)
Tried aggregator 1 time.
Detecting symmetries...
Reduced MIP has 4541 rows, 1992 columns, and 11555 nonzeros.
Reduced MIP has 1992 binaries, 0 generals, 0 SOSs, and 0 indicators.
Presolve time = 0.02 sec. (9.61 ticks)
Represolve time = 0.06 sec. (34.70 ticks)
Probing time = 0.01 sec. (2.35 ticks)
Clique table members: 4080.
MIP emphasis: balance optimality and feasibility.
MIP search method: dynamic search.
Parallel mode: none, using 1 thread.
Root relaxation solution time = 0.17 sec. (107.40 ticks)

        Nodes                                         Cuts/
   Node  Left     Objective  IInf  Best Integer    Best Bound    ItCnt     Gap

*     0+    0                          198.0000      200.0000             1.01%
      0     0      200.0000   848      198.0000      200.0000     4087    1.01%
*     0+    0                          200.0000      200.0000             0.00%
      0     0        cutoff            200.0000      200.0000     4087    0.00%
Elapsed time = 3.32 sec. (2264.28 ticks, tree = 0.01 MB, solutions = 4)

Root node processing (before b&c):
  Real time             =    3.32 sec. (2264.51 ticks)
Sequential b&c:
  Real time             =    0.00 sec. (0.00 ticks)
                          ------------
Total (root+branch&cut) =    3.32 sec. (2264.51 ticks)
Solution is feasible.

---------------------
@@@ MIP_optimal
>>> Benchmark sw100-7.cnf k 2 OPT 200 TimeCost 4.202108860015869 TimeSolve 3.3714022636413574 TimeRead 0.008145332336425781 TimeTrans 0.8225612640380859
